NAME BLEND
ROWS
 N  OBJ
 E  1       
 E  2       
 E  3       
 E  4       
 E  5       
 E  6       
 E  7       
 E  8       
 E  9       
 E  10      
 E  11      
 E  12      
 E  13      
 E  14      
 E  15      
 E  16      
 E  17      
 E  18      
 E  19      
 E  20      
 E  21      
 E  22      
 E  23      
 E  24      
 E  25      
 E  26      
 E  27      
 E  28      
 E  29      
 E  30      
 E  31      
 E  32      
 E  33      
 E  34      
 E  35      
 E  36      
 E  37      
 E  38      
 E  39      
 E  40      
 E  41      
 E  42      
 E  43      
 L  44      
 L  45      
 L  46      
 L  47      
 L  48      
 L  49      
 L  50      
 L  51      
 L  52      
 L  53      
 L  54      
 L  55      
 L  56      
 L  57      
 L  58      
 L  59      
 L  60      
 L  61      
 L  62      
 L  63      
 L  64      
 L  65      
 L  66      
 L  67      
 L  68      
 L  69      
 L  70      
 L  71      
 L  72      
 L  73      
 L  74      
COLUMNS
    1         OBJ       3.2
    1         2         -0.537
    1         3         -0.131
    1         4         -0.1155
    1         5         -0.0365
    1         6         -0.143
    1         7         -0.037
    1         40        0.003
    1         41        0.0587
    1         42        0.15
    1         43        0.302
    1         67        1
    2         OBJ       2.87
    2         1         -0.2931
    2         3         -0.117
    2         4         -0.0649
    2         5         -0.1233
    2         6         -0.2217
    2         8         -0.18
    2         39        0.0042
    2         40        0.003
    2         41        0.1053
    2         42        0.185
    2         43        0.384
    2         50        -0.00862
    2         51        -0.00862
    2         56        -0.0101
    2         57        -0.0101
    2         68        1
    3         2         1
    3         9         -0.0277
    3         10        -0.0563
    3         11        -0.199
    3         12        -0.6873
    3         13        -0.017
    3         40        0.01303
    3         41        0.0506
    3         42        0.209
    3         43        0.495
    3         65        1
    4         1         1
    4         9         -0.0112
    4         10        -0.0378
    4         11        -0.1502
    4         12        -0.7953
    4         13        -0.0099
    4         40        0.01303
    4         41        0.0448
    4         42        0.185
    4         43        0.721
    4         65        1
    5         9         -0.175
    5         10        -0.27
    5         11        -0.028
    5         13        -0.455
    5         21        1
    5         40        0.01303
    5         41        0.0506
    5         42        0.209
    5         43        0.495
    6         9         -0.271
    6         10        -0.3285
    6         11        -0.0255
    6         13        -0.2656
    6         18        1
    6         40        0.01303
    6         41        0.0506
    6         42        0.209
    6         43        0.495
    7         9         -0.2836
    7         10        -0.3285
    7         11        -0.0241
    7         13        -0.2502
    7         17        1
    7         40        0.01303
    7         41        0.0506
    7         42        0.209
    7         43        0.495
    8         OBJ       0.0044
    8         12        1
    8         14        -1
    8         39        0.0327
    8         41        0.094
    8         42        0.045
    8         43        0.793
    9         15        -1
    9         22        1
    10        16        -1
    10        22        1
    11        14        1
    11        15        -1
    12        14        1
    12        16        -1
    13        OBJ       0.07
    13        15        1
    13        17        -0.0588
    13        19        -0.8145
    13        23        -0.0091
    13        39        -0.8239
    13        40        0.0081
    13        41        -0.2112
    13        42        0.387
    13        43        1.03
    13        69        1.3
    14        OBJ       0.0378
    14        16        1
    14        18        -0.0404
    14        20        -0.8564
    14        23        -0.0069
    14        39        -0.7689
    14        40        0.0063
    14        41        -0.156
    14        42        0.297
    14        43        0.792
    14        69        1
    15        OBJ       0.155
    15        5         1
    15        21        -0.3321
    15        22        -0.5875
    15        23        -0.362
    15        39        2.3
    15        41        -0.2049
    15        42        0.826
    15        43        14.61
    15        65        1
    15        70        1
    16        OBJ       0.155
    16        6         1
    16        21        -0.3321
    16        22        -0.5875
    16        23        -0.362
    16        39        2.3
    16        41        -0.2049
    16        42        0.826
    16        43        14.61
    16        66        1
    16        70        1
    17        OBJ       0.155
    17        4         1
    17        21        -0.2414
    17        22        -0.6627
    17        23        -0.293
    17        39        2.3
    17        41        -0.1531
    17        42        0.826
    17        43        14.61
    17        65        1
    17        70        1
    18        OBJ       0.155
    18        21        -0.2414
    18        22        -0.6627
    18        23        -0.293
    18        28        1
    18        39        2.3
    18        41        -0.1531
    18        42        0.826
    18        43        14.61
    18        70        1
    19        OBJ       0.0528
    19        5         1
    19        10        -0.0185
    19        13        -0.0568
    19        24        -0.0806
    19        25        -0.0658
    19        26        -0.0328
    19        27        -0.4934
    19        28        -0.2922
    19        29        -0.0096
    19        40        -0.0654
    19        41        -0.2535
    19        42        0.632
    19        43        0.6807
    19        65        1
    19        71        1
    20        OBJ       0.0528
    20        6         1
    20        10        -0.0185
    20        13        -0.0568
    20        24        -0.0806
    20        25        -0.0658
    20        26        -0.0328
    20        27        -0.4934
    20        28        -0.2922
    20        29        -0.0096
    20        40        -0.0654
    20        41        -0.2535
    20        42        0.632
    20        43        0.6807
    20        66        1
    20        71        1
    21        OBJ       0.0528
    21        4         1
    21        10        -0.0184
    21        13        -0.0564
    21        24        -0.078
    21        25        -0.0655
    21        26        -0.0303
    21        27        -0.475
    21        28        -0.305
    21        40        -0.0654
    21        41        -0.2703
    21        42        0.632
    21        43        0.6807
    21        65        1
    21        71        1
    22        OBJ       0.0528
    22        3         1
    22        10        -0.0184
    22        13        -0.0564
    22        24        -0.078
    22        25        -0.0655
    22        26        -0.0303
    22        27        -0.475
    22        28        -0.305
    22        40        -0.0654
    22        41        -0.2703
    22        42        0.632
    22        43        0.6807
    22        65        1
    22        71        1
    23        OBJ       0.128
    23        13        0.76
    23        25        0.5714
    23        30        -1
    23        40        0.1869
    23        41        0.2796
    23        42        2.241
    23        43        2.766
    23        72        1
    24        OBJ       0.118
    24        9         -0.0571
    24        10        -0.0114
    24        13        0.6571
    24        24        0.5714
    24        31        -1
    24        40        0.1724
    24        41        0.2579
    24        42        2.067
    24        43        2.552
    24        72        1
    25        9         -1
    25        25        1
    26        10        -1
    26        24        1
    27        10        -1
    27        13        1
    28        11        1
    28        32        -1
    28        44        -7.95
    28        45        -8.7
    28        46        -3
    28        47        14
    28        48        1
    28        49        -1
    29        23        1
    29        32        -1
    29        44        -8.84
    29        45        -9.45
    29        46        -3
    29        47        12
    29        48        1
    29        49        -1
    30        19        1
    30        32        -1
    30        44        -9.43
    30        45        -9.57
    30        46        -3
    30        47        3.5
    30        48        0.233
    30        49        -0.358
    31        20        1
    31        32        -1
    31        44        -9.03
    31        45        -9.32
    31        46        -3
    31        47        3.5
    31        48        0.205
    31        49        -0.333
    32        27        1
    32        32        -1
    32        44        -9.23
    32        45        -9.22
    32        46        -3
    32        47        6
    32        48        0.381
    32        49        -0.509
    33        30        1
    33        32        -1
    33        44        -9.4
    33        45        -9.85
    33        46        -3
    33        47        2.5
    33        48        0.39
    33        49        -0.77
    34        31        1
    34        32        -1
    34        44        -9.74
    34        45        -10.1
    34        46        -3
    34        47        3.3
    34        48        0.233
    34        49        -0.58
    35        10        1
    35        32        -1
    35        44        -9.74
    35        45        -9.9
    35        46        -3
    35        47        66
    35        48        1
    35        49        -1
    36        OBJ       0.0924
    36        44        -0.493
    36        45        -0.165
    36        46        1
    37        OBJ       -5.36
    37        32        1
    37        44        10.03
    37        45        10.03
    37        47        -9.5
    37        48        -0.5
    37        49        0.5
    37        73        0.64
    37        74        0.35
    38        11        1
    38        33        -1
    38        50        -7.98
    38        51        -8.58
    38        52        -3
    38        53        14
    38        54        1
    38        55        -1
    39        23        1
    39        33        -1
    39        50        -8.87
    39        51        -9.33
    39        52        -3
    39        53        12
    39        54        1
    39        55        -1
    40        19        1
    40        33        -1
    40        50        -9.46
    40        51        -9.45
    40        52        -3
    40        53        3.5
    40        54        0.233
    40        55        -0.358
    41        20        1
    41        33        -1
    41        50        -9.06
    41        51        -9.2
    41        52        -3
    41        53        3.5
    41        54        0.205
    41        55        -0.333
    42        27        1
    42        33        -1
    42        50        -9.26
    42        51        -9.13
    42        52        -3
    42        53        6
    42        54        0.318
    42        55        -0.509
    43        10        1
    43        33        -1
    43        50        -9.77
    43        51        -9.78
    43        52        -3
    43        53        66
    43        54        1
    43        55        -1
    44        OBJ       0.0924
    44        50        -0.435
    44        51        -0.208
    44        52        1
    45        OBJ       -5.08
    45        33        1
    45        50        9.65
    45        51        9.65
    45        53        -9.5
    45        54        -0.5
    45        55        0.5
    45        73        -0.36
    45        74        0.35
    46        11        1
    46        36        -1
    46        56        -7.99
    46        57        -8.59
    46        58        -3
    46        59        14
    46        60        1
    46        61        -1
    47        23        1
    47        36        -1
    47        56        -8.88
    47        57        -9.34
    47        58        -3
    47        59        12
    47        60        1
    47        61        -1
    48        19        1
    48        36        -1
    48        56        -9.47
    48        57        -9.46
    48        58        -3
    48        59        3.5
    48        60        0.233
    48        61        -0.358
    49        20        1
    49        36        -1
    49        56        -9.07
    49        57        -9.21
    49        58        -3
    49        59        3.5
    49        60        0.205
    49        61        -0.333
    50        27        1
    50        36        -1
    50        56        -9.27
    50        57        -9.14
    50        58        -3
    50        59        6
    50        60        0.318
    50        61        -0.509
    51        10        1
    51        36        -1
    51        56        -9.78
    51        57        -9.79
    51        58        -3
    51        59        66
    51        60        1
    51        61        -1
    52        OBJ       0.0924
    52        56        -0.426
    52        57        -0.204
    52        58        1
    53        OBJ       -4.51
    53        36        1
    53        56        9.05
    53        57        9.05
    53        59        -9.5
    53        60        -0.5
    53        61        0.5
    53        73        -0.36
    53        74        -0.65
    54        9         -1
    54        26        1
    55        9         1
    55        37        -1
    56        10        1
    56        37        -1
    57        OBJ       -2.75
    57        37        1
    58        11        1
    58        38        -1
    58        63        -14
    58        64        14
    59        12        1
    59        38        -1
    59        63        -0.8
    59        64        0.8
    60        OBJ       -4.2
    60        38        1
    60        63        2
    60        64        -3
    61        4         1
    61        34        -1
    62        3         1
    62        34        -1
    63        OBJ       -3.6
    63        34        1
    63        65        1
    64        7         1
    64        35        -1
    64        62        10.1
    65        8         1
    65        35        -1
    65        62        12.63
    66        6         1
    66        35        -1
    66        62        8.05
    66        66        1
    67        5         1
    67        35        -1
    67        62        6.9
    67        65        1
    68        29        1
    68        35        -1
    68        62        8.05
    69        28        1
    69        35        -1
    69        62        4.4
    70        OBJ       -2
    70        35        1
    70        62        -10.1
    71        39        1
    71        41        -0.325
    72        13        1
    72        41        -4.153
    73        10        1
    73        41        -4.316
    74        9         1
    74        41        -3.814
    75        25        1
    75        41        -3.808
    76        24        1
    76        41        -4.44
    77        OBJ       0.04
    77        40        -1
    77        41        1.42
    78        40        1
    79        OBJ       3
    79        10        -0.5
    79        13        -0.5
    80        OBJ       0.4
    80        41        -1
    81        41        1
    82        OBJ       0.0132
    82        42        -1
    83        OBJ       0.01
    83        43        -1
RHS
    RHS1      65        23.26
    RHS1      66        5.25
    RHS1      67        26.32
    RHS1      68        21.05
    RHS1      69        13.45
    RHS1      70        2.58
    RHS1      71        10
    RHS1      72        10
BOUNDS
ENDATA
